Welcome to the CBC MILP Solver 
Version: 2.10.3 
Build Date: Dec 15 2019 

command line - /home/cdmonsalvea/AI_OR_Workflow/.venv/lib/python3.10/site-packages/pulp/solverdir/cbc/linux/64/cbc /tmp/ad6f43e453b348d4828f787a824fd919-pulp.mps -sec 3600 -timeMode elapsed -branch -printingOptions all -solution /tmp/ad6f43e453b348d4828f787a824fd919-pulp.sol (default strategy 1)
At line 2 NAME          MODEL
At line 3 ROWS
At line 45 COLUMNS
At line 1306 RHS
At line 1347 BOUNDS
At line 1368 ENDATA
Problem MODEL has 40 rows, 420 columns and 820 elements
Coin0008I MODEL read with 0 errors
seconds was changed from 1e+100 to 3600
Option for timeMode changed from cpu to elapsed
Continuous objective value is 2.0275e+07 - 0.00 seconds
Cgl0004I processed model has 40 rows, 420 columns (20 integer (20 of which binary)) and 820 elements
Cbc0038I Initial state - 20 integers unsatisfied sum - 5.41541
Cbc0038I Pass   1: suminf.    0.33712 (1) obj. 2.40088e+09 iterations 20
Cbc0038I Solution found of 2.40193e+09
Cbc0038I Relaxing continuous gives 1.66435e+09
Cbc0038I Before mini branch and bound, 0 integers at bound fixed and 361 continuous
Cbc0038I Full problem 40 rows 420 columns, reduced to 36 rows 51 columns
Cbc0038I Mini branch and bound improved solution from 1.66435e+09 to 6.87228e+07 (0.01 seconds)
Cbc0038I Round again with cutoff of 6.3878e+07
Cbc0038I Pass   2: suminf.    4.07692 (17) obj. 6.3878e+07 iterations 47
Cbc0038I Pass   3: suminf.    3.23649 (15) obj. 6.3878e+07 iterations 2
Cbc0038I Pass   4: suminf.    0.55105 (3) obj. 6.3878e+07 iterations 20
Cbc0038I Pass   5: suminf.    0.04865 (1) obj. 6.3878e+07 iterations 5
Cbc0038I Pass   6: suminf.    0.31952 (1) obj. 6.3878e+07 iterations 4
Cbc0038I Pass   7: suminf.    0.46123 (1) obj. 6.3878e+07 iterations 1
Cbc0038I Pass   8: suminf.    0.62943 (2) obj. 6.3878e+07 iterations 7
Cbc0038I Pass   9: suminf.    0.47214 (2) obj. 6.3878e+07 iterations 3
Cbc0038I Pass  10: suminf.    0.47214 (2) obj. 6.3878e+07 iterations 0
Cbc0038I Pass  11: suminf.    0.59581 (2) obj. 6.3878e+07 iterations 2
Cbc0038I Pass  12: suminf.    0.59581 (2) obj. 6.3878e+07 iterations 0
Cbc0038I Pass  13: suminf.    0.73035 (2) obj. 6.3878e+07 iterations 1
Cbc0038I Pass  14: suminf.    1.11367 (3) obj. 6.3878e+07 iterations 9
Cbc0038I Pass  15: suminf.    0.39549 (2) obj. 6.3878e+07 iterations 6
Cbc0038I Pass  16: suminf.    0.47214 (2) obj. 6.3878e+07 iterations 5
Cbc0038I Pass  17: suminf.    0.47214 (2) obj. 6.3878e+07 iterations 0
Cbc0038I Pass  18: suminf.    0.59581 (2) obj. 6.3878e+07 iterations 2
Cbc0038I Pass  19: suminf.    0.59581 (2) obj. 6.3878e+07 iterations 0
Cbc0038I Pass  20: suminf.    0.73035 (2) obj. 6.3878e+07 iterations 1
Cbc0038I Pass  21: suminf.    1.18544 (3) obj. 6.3878e+07 iterations 6
Cbc0038I Pass  22: suminf.    0.31952 (1) obj. 6.3878e+07 iterations 7
Cbc0038I Pass  23: suminf.    0.46123 (1) obj. 6.3878e+07 iterations 1
Cbc0038I Pass  24: suminf.    0.58686 (2) obj. 6.3878e+07 iterations 4
Cbc0038I Pass  25: suminf.    0.59581 (2) obj. 6.3878e+07 iterations 2
Cbc0038I Pass  26: suminf.    0.59581 (2) obj. 6.3878e+07 iterations 0
Cbc0038I Pass  27: suminf.    0.73035 (2) obj. 6.3878e+07 iterations 1
Cbc0038I Pass  28: suminf.    0.49319 (2) obj. 6.3878e+07 iterations 4
Cbc0038I Pass  29: suminf.    0.32759 (2) obj. 6.3878e+07 iterations 5
Cbc0038I Pass  30: suminf.    1.74404 (5) obj. 6.3878e+07 iterations 9
Cbc0038I Pass  31: suminf.    1.33646 (4) obj. 6.3878e+07 iterations 2
Cbc0038I Rounding solution of 6.64074e+07 is better than previous of 6.87228e+07

Cbc0038I Before mini branch and bound, 0 integers at bound fixed and 368 continuous
Cbc0038I Full problem 40 rows 420 columns, reduced to 21 rows 31 columns
Cbc0038I Mini branch and bound improved solution from 6.64074e+07 to 6.44411e+07 (0.02 seconds)
Cbc0038I Round again with cutoff of 5.51574e+07
Cbc0038I Pass  31: suminf.    4.15980 (17) obj. 5.51574e+07 iterations 0
Cbc0038I Pass  32: suminf.    3.76207 (16) obj. 5.51574e+07 iterations 1
Cbc0038I Pass  33: suminf.    1.91621 (6) obj. 5.51574e+07 iterations 23
Cbc0038I Pass  34: suminf.    1.91621 (6) obj. 5.51574e+07 iterations 0
Cbc0038I Pass  35: suminf.    1.76248 (5) obj. 5.51574e+07 iterations 3
Cbc0038I Pass  36: suminf.    1.40575 (5) obj. 5.51574e+07 iterations 1
Cbc0038I Pass  37: suminf.    1.76248 (5) obj. 5.51574e+07 iterations 1
Cbc0038I Pass  38: suminf.    1.32888 (5) obj. 5.51574e+07 iterations 4
Cbc0038I Pass  39: suminf.    1.76248 (5) obj. 5.51574e+07 iterations 4
Cbc0038I Pass  40: suminf.    1.72503 (6) obj. 5.51574e+07 iterations 10
Cbc0038I Pass  41: suminf.    1.69002 (5) obj. 5.51574e+07 iterations 10
Cbc0038I Pass  42: suminf.    1.69002 (5) obj. 5.51574e+07 iterations 0
Cbc0038I Pass  43: suminf.    1.76248 (5) obj. 5.51574e+07 iterations 3
Cbc0038I Pass  44: suminf.    1.40575 (5) obj. 5.51574e+07 iterations 1
Cbc0038I Pass  45: suminf.    1.76248 (5) obj. 5.51574e+07 iterations 1
Cbc0038I Pass  46: suminf.    1.76248 (5) obj. 5.51574e+07 iterations 2
Cbc0038I Pass  47: suminf.    1.43904 (5) obj. 5.51574e+07 iterations 1
Cbc0038I Pass  48: suminf.    1.43904 (5) obj. 5.51574e+07 iterations 0
Cbc0038I Pass  49: suminf.    1.95918 (7) obj. 5.51574e+07 iterations 7
Cbc0038I Pass  50: suminf.    1.72877 (5) obj. 5.51574e+07 iterations 11
Cbc0038I Pass  51: suminf.    1.72877 (5) obj. 5.51574e+07 iterations 0
Cbc0038I Pass  52: suminf.    1.76248 (5) obj. 5.51574e+07 iterations 3
Cbc0038I Pass  53: suminf.    1.40575 (5) obj. 5.51574e+07 iterations 1
Cbc0038I Pass  54: suminf.    1.76248 (5) obj. 5.51574e+07 iterations 1
Cbc0038I Pass  55: suminf.    1.34403 (5) obj. 5.51574e+07 iterations 7
Cbc0038I Pass  56: suminf.    1.76248 (5) obj. 5.51574e+07 iterations 4
Cbc0038I Pass  57: suminf.    2.27681 (6) obj. 5.51574e+07 iterations 3
Cbc0038I Pass  58: suminf.    1.76248 (5) obj. 5.51574e+07 iterations 1
Cbc0038I Pass  59: suminf.    1.74520 (5) obj. 5.51574e+07 iterations 1
Cbc0038I Pass  60: suminf.    2.20764 (7) obj. 5.51574e+07 iterations 6
Cbc0038I No solution found this major pass
Cbc0038I Before mini branch and bound, 0 integers at bound fixed and 370 continuous
Cbc0038I Full problem 40 rows 420 columns, reduced to 17 rows 26 columns
Cbc0038I Mini branch and bound did not improve solution (0.02 seconds)
Cbc0038I After 0.02 seconds - Feasibility pump exiting with objective of 6.44411e+07 - took 0.02 seconds
Cbc0012I Integer solution of 64441094 found by feasibility pump after 0 iterations and 0 nodes (0.02 seconds)
Cbc0031I 22 added rows had average density of 21.818182
Cbc0013I At root node, 28 cuts changed objective from 20274999 to 64441094 in 2 passes
Cbc0014I Cut generator 0 (Probing) - 0 row cuts average 0.0 elements, 0 column cuts (0 active)  in 0.000 seconds - new frequency is -100
Cbc0014I Cut generator 1 (Gomory) - 24 row cuts average 23.3 elements, 0 column cuts (0 active)  in 0.000 seconds - new frequency is 1
Cbc0014I Cut generator 2 (Knapsack) - 0 row cuts average 0.0 elements, 0 column cuts (0 active)  in 0.000 seconds - new frequency is -100
Cbc0014I Cut generator 3 (Clique) - 0 row cuts average 0.0 elements, 0 column cuts (0 active)  in 0.000 seconds - new frequency is -100
Cbc0014I Cut generator 4 (MixedIntegerRounding2) - 0 row cuts average 0.0 elements, 0 column cuts (0 active)  in 0.000 seconds - new frequency is -100
Cbc0014I Cut generator 5 (FlowCover) - 0 row cuts average 0.0 elements, 0 column cuts (0 active)  in 0.000 seconds - new frequency is -100
Cbc0014I Cut generator 6 (TwoMirCuts) - 24 row cuts average 23.3 elements, 0 column cuts (0 active)  in 0.000 seconds - new frequency is 1
Cbc0001I Search completed - best objective 64441093.74956164, took 26 iterations and 0 nodes (0.03 seconds)
Cbc0035I Maximum depth 0, 0 variables fixed on reduced cost
Cuts at root node changed objective from 2.0275e+07 to 6.44411e+07
Probing was tried 2 times and created 0 cuts of which 0 were active after adding rounds of cuts (0.000 seconds)
Gomory was tried 2 times and created 24 cuts of which 0 were active after adding rounds of cuts (0.000 seconds)
Knapsack was tried 2 times and created 0 cuts of which 0 were active after adding rounds of cuts (0.000 seconds)
Clique was tried 2 times and created 0 cuts of which 0 were active after adding rounds of cuts (0.000 seconds)
MixedIntegerRounding2 was tried 2 times and created 0 cuts of which 0 were active after adding rounds of cuts (0.000 seconds)
FlowCover was tried 2 times and created 0 cuts of which 0 were active after adding rounds of cuts (0.000 seconds)
TwoMirCuts was tried 2 times and created 24 cuts of which 0 were active after adding rounds of cuts (0.000 seconds)
ZeroHalf was tried 1 times and created 0 cuts of which 0 were active after adding rounds of cuts (0.000 seconds)

Result - Optimal solution found

Objective value:                64441093.74956164
Enumerated nodes:               0
Total iterations:               26
Time (CPU seconds):             0.03
Time (Wallclock seconds):       0.03

Option for printingOptions changed from normal to all
Total time (CPU seconds):       0.03   (Wallclock seconds):       0.03

